p cnf 41 243
1 -29 0 
29 -1 14 15 16 18 22 23 25 26 27 28 0 
1 -28 2 3 4 5 6 7 8 0 
1 -27 2 3 4 5 6 7 8 0 
1 -26 2 3 4 5 6 7 8 0 
1 -25 3 0 
1 -18 2 3 4 5 6 7 8 0 
1 -16 2 3 4 5 6 7 8 0 
1 -15 2 3 4 5 6 7 8 0 
1 -14 2 3 4 5 6 7 8 0 
24 -8 14 15 16 17 18 19 20 21 22 23 27 26 28 0 
8 -21 2 5 6 7 4 0 
24 -7 14 15 16 17 18 19 20 21 22 23 27 26 28 0 
24 -6 14 15 16 17 18 19 20 21 22 23 27 26 28 0 
10 -13 9 0 
10 -12 9 0 
10 -11 9 0 
24 -4 14 15 16 17 18 19 20 21 22 23 27 26 28 0 
28 -3 14 15 16 17 18 19 20 22 23 24 25 26 27 0 
3 -24 5 6 7 4 8 2 0 
3 -20 5 6 7 4 8 2 0 
3 -19 5 6 7 4 8 2 0 
3 -17 5 6 7 4 8 2 0 
24 -2 14 15 16 17 18 19 20 21 22 23 27 26 28 0 
2 -23 3 4 5 6 7 8 0 
2 -22 3 4 5 6 7 8 0 
-2 -3 0 
-2 -4 0 
-2 -5 0 
-2 -6 0 
-2 -7 0 
-3 -4 0 
-2 -8 0 
-2 -9 0 
-3 -5 0 
-2 -10 0 
-2 -11 0 
-3 -6 0 
-2 -12 0 
-2 -13 0 
-3 -7 0 
-4 -5 0 
-3 -8 0 
-4 -6 0 
-3 -9 0 
-3 -10 0 
-4 -7 0 
-3 -11 0 
-5 -6 0 
-4 -8 0 
-3 -12 0 
-2 -25 0 
-3 -13 0 
-4 -9 0 
-5 -7 0 
-2 -28 0 
-4 -10 0 
-2 -29 0 
-5 -8 0 
-4 -11 0 
-6 -7 0 
-17 -3 0 
-5 -9 0 
-4 -12 0 
-6 -8 0 
-4 -13 0 
-5 -10 0 
-21 -3 0 
-5 -11 0 
-6 -9 0 
-2 -1 0 
1 2 3 4 5 6 7 8 9 10 0 
-7 -8 0 
-5 -12 0 
-6 -10 0 
-5 -13 0 
-7 -9 0 
-6 -11 0 
-7 -10 0 
-6 -12 0 
-3 -29 0 
-8 -9 0 
-6 -13 0 
-7 -11 0 
-8 -10 0 
-7 -12 0 
-8 -11 0 
-4 -25 0 
-7 -13 0 
-9 -10 0 
-8 -12 0 
-4 -28 0 
-3 -1 0 
1 3 -28 0 
-4 -29 0 
-8 -13 0 
-5 -25 0 
-9 -14 0 
-5 -28 0 
-11 -12 0 
-5 -29 0 
-15 -9 0 
-10 -14 0 
-6 -25 0 
-9 -16 0 
-11 -13 0 
-4 -1 0 
-15 -10 0 
-9 -17 0 
-11 -14 0 
-12 -13 0 
-6 -28 0 
-10 -16 0 
-18 -9 0 
-6 -29 0 
-11 -15 0 
-12 -14 0 
-7 -25 0 
-9 -19 0 
-10 -17 0 
-11 -16 0 
-9 -20 0 
-18 -10 0 
-12 -15 0 
-13 -14 0 
-9 -21 0 
-11 -17 0 
-7 -28 0 
-10 -19 0 
-5 -1 0 
-12 -16 0 
-7 -29 0 
-8 -25 0 
-9 -22 0 
-13 -15 0 
-11 -18 0 
-10 -20 0 
-23 -9 0 
-12 -17 0 
-10 -21 0 
-11 -19 0 
-13 -16 0 
-9 -24 0 
-12 -18 0 
-8 -28 0 
-10 -22 0 
-11 -20 0 
-9 -25 0 
-13 -17 0 
-14 -16 0 
-8 -29 0 
-23 -10 0 
-12 -19 0 
-9 -26 0 
-11 -21 0 
-13 -18 0 
-6 -1 0 
-10 -24 0 
-9 -27 0 
-12 -20 0 
-11 -22 0 
-15 -16 0 
-9 -28 0 
-10 -25 0 
-13 -19 0 
-11 -23 0 
-12 -21 0 
-9 -29 0 
-10 -26 0 
-13 -20 0 
-11 -24 0 
-12 -22 0 
-10 -27 0 
-11 -25 0 
-13 -21 0 
-12 -23 0 
-10 -28 0 
-7 -1 0 
-11 -26 0 
-10 -29 0 
-13 -22 0 
-12 -24 0 
-16 -18 0 
-11 -27 0 
-12 -25 0 
-13 -23 0 
-11 -28 0 
-12 -26 0 
-13 -24 0 
-12 -27 0 
-8 -1 0 
-13 -25 0 
-12 -28 0 
-13 -26 0 
-13 -27 0 
-13 -28 0 
-9 -1 0 
-19 -20 0 
-10 -1 0 
-17 -25 0 
-11 -1 0 
-28 -17 0 
-25 -19 0 
-17 -29 0 
-12 -1 0 
-25 -20 0 
-13 -1 0 
-25 -24 0 
-25 -26 0 
-25 -27 0 
-25 -28 0 
-17 -1 0 
-1 -19 0 
-1 -20 0 
-21 -1 0 
30 31 32 33 34 35 36 37 38 39 40 41 9 10 0 
-31 -32 0 
-1 -24 0 
-30 -34 0 
-31 -34 0 
-33 -32 0 
-31 -35 0 
-34 -32 0 
-31 -37 0 
-34 -35 0 
-39 -31 0 
-30 -41 0 
-40 -31 0 
-31 -41 0 
-40 -32 0 
-41 -32 0 
-39 -34 0 
-36 -37 0 
-33 -41 0 
-34 -40 0 
-34 -41 0 
-35 -41 0 
-36 -41 0 
-37 -41 0 
-38 -41 0 
-39 -40 0 
-39 -41 0 
-40 -41 0 
c p weight 1 0.540753 0
c p weight -1 0.459247 0
c p weight 2 0.483074 0
c p weight -2 0.516926 0
c p weight 3 0.488775 0
c p weight -3 0.511225 0
c p weight 4 0.558727 0
c p weight -4 0.441273 0
c p weight 5 0.523829 0
c p weight -5 0.476171 0
c p weight 6 0.404933 0
c p weight -6 0.595067 0
c p weight 7 0.469755 0
c p weight -7 0.530245 0
c p weight 8 0.48389 0
c p weight -8 0.516110 0
c p weight 9 0.523167 0
c p weight -9 0.476833 0
c p weight 10 0.514917 0
c p weight -10 0.485083 0
c p weight 11 0.432278 0
c p weight -11 0.567722 0
c p weight 12 0.531512 0
c p weight -12 0.468488 0
c p weight 13 0.518273 0
c p weight -13 0.481727 0
c p weight 14 0.430933 0
c p weight -14 0.569067 0
c p weight 15 0.553792 0
c p weight -15 0.446208 0
c p weight 16 0.568235 0
c p weight -16 0.431765 0
c p weight 17 0.457771 0
c p weight -17 0.542229 0
c p weight 18 0.521209 0
c p weight -18 0.478791 0
c p weight 19 0.553548 0
c p weight -19 0.446452 0
c p weight 20 0.432282 0
c p weight -20 0.567718 0
c p weight 21 0.519284 0
c p weight -21 0.480716 0
c p weight 22 0.525617 0
c p weight -22 0.474383 0
c p weight 23 0.526655 0
c p weight -23 0.473345 0
c p weight 24 0.522564 0
c p weight -24 0.477436 0
c p weight 25 0.427722 0
c p weight -25 0.572278 0
c p weight 26 0.506535 0
c p weight -26 0.493465 0
c p weight 27 0.484031 0
c p weight -27 0.515969 0
c p weight 28 0.522792 0
c p weight -28 0.477208 0
c p weight 29 0.49486 0
c p weight -29 0.505140 0
c p weight 30 0.564631 0
c p weight -30 0.435369 0
c p weight 31 0.427451 0
c p weight -31 0.572549 0
c p weight 32 0.550585 0
c p weight -32 0.449415 0
c p weight 33 0.574189 0
c p weight -33 0.425811 0
c p weight 34 0.479429 0
c p weight -34 0.520571 0
c p weight 35 0.437633 0
c p weight -35 0.562367 0
c p weight 36 0.564932 0
c p weight -36 0.435068 0
c p weight 37 0.464199 0
c p weight -37 0.535801 0
c p weight 38 0.512494 0
c p weight -38 0.487506 0
c p weight 39 0.57531 0
c p weight -39 0.424690 0
c p weight 40 0.574807 0
c p weight -40 0.425193 0
c p weight 41 0.502576 0
c p weight -41 0.497424 0
